(set-info :smt-lib-version 2.6)
(set-logic QF_NIA)
(set-info :source |
Generated by: Cristina Borralleras, Daniel Larraz, Albert Oliveras, Enric Rodriguez-Carbonell, Albert Rubio
Generated on: 2017-04-27
Generator: VeryMax
Application: Termination proving
Target solver: barcelogic
|)
(set-info :license "https://creativecommons.org/licenses/by/4.0/")
(set-info :category "industrial")
(set-info :status unsat)
(declare-fun Nl11arg11 () Int)
(declare-fun Nl11arg21 () Int)
(declare-fun Nl11arg31 () Int)
(declare-fun Nl11arg41 () Int)
(declare-fun Nl11arg51 () Int)
(declare-fun lam0n0 () Int)
(declare-fun lam0n1 () Int)
(declare-fun lam0n2 () Int)
(declare-fun lam0n3 () Int)
(declare-fun lam0n4 () Int)
(declare-fun lam0n5 () Int)
(declare-fun lam0n6 () Int)
(declare-fun lam0n7 () Int)
(declare-fun lam0n8 () Int)
(declare-fun lam0n9 () Int)
(declare-fun Nl11CT1 () Int)
(declare-fun lam1n0 () Int)
(declare-fun lam1n1 () Int)
(declare-fun lam1n2 () Int)
(declare-fun lam1n3 () Int)
(declare-fun lam1n4 () Int)
(declare-fun lam1n5 () Int)
(declare-fun lam1n6 () Int)
(declare-fun lam1n7 () Int)
(declare-fun lam1n8 () Int)
(declare-fun lam1n9 () Int)
(declare-fun lam2n0 () Int)
(declare-fun lam2n1 () Int)
(declare-fun lam2n2 () Int)
(declare-fun lam2n3 () Int)
(declare-fun lam2n4 () Int)
(declare-fun lam2n5 () Int)
(declare-fun lam2n6 () Int)
(declare-fun lam2n7 () Int)
(declare-fun lam2n8 () Int)
(declare-fun lam2n9 () Int)
(declare-fun lam2n10 () Int)
(declare-fun lam2n11 () Int)
(declare-fun lam2n12 () Int)
(declare-fun lam2n13 () Int)
(declare-fun lam2n14 () Int)
(declare-fun lam2n15 () Int)
(declare-fun lam2n16 () Int)
(declare-fun lam2n17 () Int)
(declare-fun lam2n18 () Int)
(declare-fun lam3n0 () Int)
(declare-fun lam3n1 () Int)
(declare-fun lam3n2 () Int)
(declare-fun lam3n3 () Int)
(declare-fun lam3n4 () Int)
(declare-fun lam3n5 () Int)
(declare-fun lam3n6 () Int)
(declare-fun lam3n7 () Int)
(declare-fun lam3n8 () Int)
(declare-fun lam3n9 () Int)
(declare-fun lam3n10 () Int)
(declare-fun lam3n11 () Int)
(declare-fun lam3n12 () Int)
(declare-fun undef1 () Int)
(declare-fun undef2 () Int)
(declare-fun undef289 () Int)
(declare-fun undef290 () Int)
(declare-fun undef292 () Int)
(declare-fun undef301 () Int)
(declare-fun undef302 () Int)
(declare-fun undef366 () Int)
(declare-fun undef303 () Int)
(declare-fun undef367 () Int)
(declare-fun undef291 () Int)
(declare-fun undef293 () Int)
(declare-fun arg1 () Int)
(declare-fun arg2 () Int)
(declare-fun undef276 () Int)
(declare-fun undef277 () Int)
(declare-fun undef279 () Int)
(declare-fun arg3 () Int)
(declare-fun undef288 () Int)
(declare-fun undef278 () Int)
(declare-fun undef280 () Int)
(declare-fun lam7n0 () Int)
(declare-fun lam7n1 () Int)
(declare-fun lam7n2 () Int)
(declare-fun lam7n3 () Int)
(declare-fun lam7n4 () Int)
(declare-fun lam7n5 () Int)
(declare-fun lam7n6 () Int)
(declare-fun lam7n7 () Int)
(declare-fun lam7n8 () Int)
(declare-fun lam7n9 () Int)
(declare-fun RFN1_CT () Int)
(declare-fun RFN1_arg1 () Int)
(declare-fun RFN1_arg2 () Int)
(declare-fun RFN1_arg3 () Int)
(declare-fun RFN1_arg4 () Int)
(declare-fun RFN1_arg5 () Int)
(declare-fun lam5n0 () Int)
(declare-fun lam5n1 () Int)
(declare-fun lam5n2 () Int)
(declare-fun lam5n3 () Int)
(declare-fun lam5n4 () Int)
(declare-fun lam5n5 () Int)
(declare-fun lam5n6 () Int)
(declare-fun lam5n7 () Int)
(declare-fun lam5n8 () Int)
(declare-fun lam5n9 () Int)
(declare-fun lam6n0 () Int)
(declare-fun lam6n1 () Int)
(declare-fun lam6n2 () Int)
(declare-fun lam6n3 () Int)
(declare-fun lam6n4 () Int)
(declare-fun lam6n5 () Int)
(declare-fun lam6n6 () Int)
(declare-fun lam6n7 () Int)
(declare-fun lam6n8 () Int)
(declare-fun lam6n9 () Int)
(declare-fun lam4n0 () Int)
(declare-fun lam4n1 () Int)
(declare-fun lam4n2 () Int)
(declare-fun lam4n3 () Int)
(declare-fun lam4n4 () Int)
(declare-fun lam4n5 () Int)
(declare-fun lam4n6 () Int)
(declare-fun lam4n7 () Int)
(declare-fun lam4n8 () Int)
(declare-fun lam4n9 () Int)
(assert ( and ( <= ( - 1 ) Nl11arg11 ) ( <= Nl11arg11 1 ) ( <= ( - 1 ) Nl11arg21 ) ( <= Nl11arg21 1 ) ( <= ( - 1 ) Nl11arg31 ) ( <= Nl11arg31 1 ) ( <= ( - 1 ) Nl11arg41 ) ( <= Nl11arg41 1 ) ( <= ( - 1 ) Nl11arg51 ) ( <= Nl11arg51 1 ) ))
(assert ( or ( and ( >= lam0n0 0 ) ( >= lam0n1 0 ) ( >= lam0n2 0 ) ( >= lam0n3 0 ) ( >= lam0n4 0 ) ( >= lam0n5 0 ) ( >= lam0n6 0 ) ( >= lam0n7 0 ) ( >= lam0n8 0 ) ( >= lam0n9 0 ) ( > ( + ( * 1 lam0n0 ) ( * 1 lam0n1 ) ( * 1 lam0n2 ) ( * 2 lam0n4 ) ( * 2 lam0n5 ) ( * 2 lam0n6 ) ( * 4 lam0n7 ) ( * 3 lam0n8 ) ( * Nl11CT1 lam0n9 ) ( - 1 ) ) 0 ) ( = ( + ( * ( - 1 ) lam0n0 ) ( * ( - 1 ) lam0n4 ) ( * ( - 1 ) lam0n5 ) ( * ( - 1 ) lam0n6 ) ( * ( - 1 ) lam0n7 ) ( * ( - 1 ) lam0n8 ) ( * Nl11arg11 lam0n9 ) ) 0 ) ( = ( + ( * ( - 1 ) lam0n0 ) ( * ( - 1 ) lam0n1 ) ( * ( - 1 ) lam0n4 ) ( * ( - 1 ) lam0n7 ) ( * Nl11arg21 lam0n9 ) ) 0 ) ( = ( + ( * 1 lam0n4 ) ( * 1 lam0n5 ) ( * Nl11arg31 lam0n9 ) ) 0 ) ( = ( + ( * 1 lam0n0 ) ( * 1 lam0n6 ) ( * Nl11arg41 lam0n9 ) ) 0 ) ( = ( * Nl11arg51 lam0n9 ) 0 ) ( = ( * ( - 1 ) lam0n2 ) 0 ) ( = ( * ( - 1 ) lam0n3 ) 0 ) ) ( and ( >= lam1n0 0 ) ( >= lam1n1 0 ) ( >= lam1n2 0 ) ( >= lam1n3 0 ) ( >= lam1n4 0 ) ( >= lam1n5 0 ) ( >= lam1n6 0 ) ( >= lam1n7 0 ) ( >= lam1n8 0 ) ( >= lam1n9 0 ) ( > ( + ( * 1 lam1n0 ) ( * 1 lam1n1 ) ( * 1 lam1n2 ) ( * 2 lam1n4 ) ( * 2 lam1n5 ) ( * 2 lam1n6 ) ( * 4 lam1n7 ) ( * 3 lam1n8 ) ( * Nl11CT1 lam1n9 ) ( - 1 ( + ( + ( + ( + ( + Nl11CT1 ( * Nl11arg11 0 ) ) ( * Nl11arg21 0 ) ) ( * Nl11arg31 0 ) ) ( * Nl11arg41 0 ) ) ( * Nl11arg51 0 ) ) ) ) 0 ) ( = ( + ( * ( - 1 ) lam1n0 ) ( * ( - 1 ) lam1n4 ) ( * ( - 1 ) lam1n5 ) ( * ( - 1 ) lam1n6 ) ( * ( - 1 ) lam1n7 ) ( * ( - 1 ) lam1n8 ) ( * Nl11arg11 lam1n9 ) ) 0 ) ( = ( + ( * ( - 1 ) lam1n0 ) ( * ( - 1 ) lam1n1 ) ( * ( - 1 ) lam1n4 ) ( * ( - 1 ) lam1n7 ) ( * Nl11arg21 lam1n9 ) ) 0 ) ( = ( + ( * 1 lam1n4 ) ( * 1 lam1n5 ) ( * Nl11arg31 lam1n9 ) ) 0 ) ( = ( + ( * 1 lam1n0 ) ( * 1 lam1n6 ) ( * Nl11arg41 lam1n9 ) ) 0 ) ( = ( * Nl11arg51 lam1n9 ) 0 ) ( = ( + ( * ( - 1 ) lam1n2 ) ( - ( + 0 ( * Nl11arg11 1 ) ) ) ) 0 ) ( = ( + ( * ( - 1 ) lam1n3 ) ( - ( + 0 ( * Nl11arg21 1 ) ) ) ) 0 ) ( = ( - ( + 0 ( * Nl11arg31 1 ) ) ) 0 ) ( = ( - ( + 0 ( * Nl11arg41 1 ) ) ) 0 ) ( = ( - ( + 0 ( * Nl11arg51 1 ) ) ) 0 ) ) ))
(assert ( or ( and ( <= ( + 1 ( * ( - 1 ) undef1 ) ) 0 ) ( <= ( + 1 ( * ( - 1 ) undef2 ) ) 0 ) ( not ( <= ( + undef289 undef290 ( * ( - 1 ) undef292 ) ) 0 ) ) ( not ( <= undef290 0 ) ) ( <= ( + 1 undef301 ( * ( - 1 ) undef302 ) ) 0 ) ( <= ( + 1 ( * ( - 1 ) undef302 ) ) 0 ) ( <= ( + 1 ( * ( - 1 ) undef366 ) ) 0 ) ( <= ( + undef1 ( * ( - 1 ) undef366 ) ) 0 ) ( <= ( + ( * ( - 1 ) undef2 ) undef289 ) 0 ) ( <= ( * ( - 1 ) undef301 ) 0 ) ( <= ( * ( - 1 ) undef303 ) 0 ) ( <= ( * ( - 1 ) undef367 ) 0 ) ( <= ( + 2 ( * ( - 1 ) undef2 ) undef291 ) 0 ) ( <= ( + 2 ( * ( - 1 ) undef2 ) undef292 ) 0 ) ( not ( <= ( + ( - 1 ) undef289 undef290 ( * ( - 1 ) undef291 ) ) 0 ) ) ( not ( <= ( + ( - 1 ) undef289 ( * ( - 1 ) undef291 ) ) 0 ) ) ( not ( <= ( + ( - 1 ) undef289 ( * ( - 1 ) undef292 ) ) 0 ) ) ( not ( <= ( + ( - 3 ) undef289 undef290 ) 0 ) ) ( not ( <= ( + ( - 2 ) undef289 ) 0 ) ) ( <= ( + ( + ( + ( + ( + ( + Nl11CT1 ( * Nl11arg11 0 ) ) ( * Nl11arg21 0 ) ) ( * Nl11arg31 0 ) ) ( * Nl11arg41 0 ) ) ( * Nl11arg51 0 ) ) ( * ( + 0 ( * Nl11arg11 1 ) ) undef289 ) ( * ( + 0 ( * Nl11arg21 1 ) ) undef290 ) ( * ( + 0 ( * Nl11arg31 1 ) ) undef291 ) ( * ( + 0 ( * Nl11arg41 1 ) ) undef292 ) ( * ( + 0 ( * Nl11arg51 1 ) ) undef293 ) ) 0 ) ) ( and ( <= ( + 1 ( * ( - 1 ) arg1 ) ) 0 ) ( <= ( + 1 ( * ( - 1 ) arg2 ) ) 0 ) ( not ( <= ( + undef276 undef277 ( * ( - 1 ) undef279 ) ) 0 ) ) ( not ( <= undef277 0 ) ) ( <= ( + ( * ( - 1 ) arg2 ) undef276 ) 0 ) ( <= ( + ( * ( - 1 ) arg3 ) undef288 ) 0 ) ( <= ( + 2 ( * ( - 1 ) arg2 ) undef278 ) 0 ) ( <= ( + 2 ( * ( - 1 ) arg2 ) undef279 ) 0 ) ( not ( <= ( + ( - 1 ) undef276 undef277 ( * ( - 1 ) undef278 ) ) 0 ) ) ( not ( <= ( + ( - 1 ) undef276 ( * ( - 1 ) undef278 ) ) 0 ) ) ( not ( <= ( + ( - 1 ) undef276 ( * ( - 1 ) undef279 ) ) 0 ) ) ( not ( <= ( + ( - 3 ) undef276 undef277 ) 0 ) ) ( not ( <= ( + ( - 2 ) undef276 ) 0 ) ) ( <= ( + ( + ( + ( + ( + ( + Nl11CT1 ( * Nl11arg11 0 ) ) ( * Nl11arg21 0 ) ) ( * Nl11arg31 0 ) ) ( * Nl11arg41 0 ) ) ( * Nl11arg51 0 ) ) ( * ( + 0 ( * Nl11arg11 1 ) ) undef276 ) ( * ( + 0 ( * Nl11arg21 1 ) ) undef277 ) ( * ( + 0 ( * Nl11arg31 1 ) ) undef278 ) ( * ( + 0 ( * Nl11arg41 1 ) ) undef279 ) ( * ( + 0 ( * Nl11arg51 1 ) ) undef280 ) ) 0 ) ) ))
(assert ( or ( and ( and ( >= lam7n0 0 ) ( >= lam7n1 0 ) ( >= lam7n2 0 ) ( >= lam7n3 0 ) ( >= lam7n4 0 ) ( >= lam7n5 0 ) ( >= lam7n6 0 ) ( >= lam7n7 0 ) ( >= lam7n8 0 ) ( >= lam7n9 0 ) ( > ( + ( * 1 lam7n0 ) ( * 1 lam7n1 ) ( * 1 lam7n2 ) ( * 2 lam7n4 ) ( * 2 lam7n5 ) ( * 2 lam7n6 ) ( * 4 lam7n7 ) ( * 3 lam7n8 ) ( * Nl11CT1 lam7n9 ) ( - 1 ( - ( + ( + ( + ( + ( + RFN1_CT ( * RFN1_arg1 0 ) ) ( * RFN1_arg2 0 ) ) ( * RFN1_arg3 0 ) ) ( * RFN1_arg4 0 ) ) ( * RFN1_arg5 0 ) ) RFN1_CT ) ) ) 0 ) ( = ( + ( * ( - 1 ) lam7n0 ) ( * ( - 1 ) lam7n4 ) ( * ( - 1 ) lam7n5 ) ( * ( - 1 ) lam7n6 ) ( * ( - 1 ) lam7n7 ) ( * ( - 1 ) lam7n8 ) ( * Nl11arg11 lam7n9 ) ( - ( - RFN1_arg1 ) ) ) 0 ) ( = ( + ( * ( - 1 ) lam7n0 ) ( * ( - 1 ) lam7n1 ) ( * ( - 1 ) lam7n4 ) ( * ( - 1 ) lam7n7 ) ( * Nl11arg21 lam7n9 ) ( - ( - RFN1_arg2 ) ) ) 0 ) ( = ( + ( * 1 lam7n4 ) ( * 1 lam7n5 ) ( * Nl11arg31 lam7n9 ) ( - ( - RFN1_arg3 ) ) ) 0 ) ( = ( + ( * 1 lam7n0 ) ( * 1 lam7n6 ) ( * Nl11arg41 lam7n9 ) ( - ( - RFN1_arg4 ) ) ) 0 ) ( = ( + ( * Nl11arg51 lam7n9 ) ( - ( - RFN1_arg5 ) ) ) 0 ) ( = ( + ( * ( - 1 ) lam7n2 ) ( - ( + 0 ( * RFN1_arg1 1 ) ) ) ) 0 ) ( = ( + ( * ( - 1 ) lam7n3 ) ( - ( + 0 ( * RFN1_arg2 1 ) ) ) ) 0 ) ( = ( - ( + 0 ( * RFN1_arg3 1 ) ) ) 0 ) ( = ( - ( + 0 ( * RFN1_arg4 1 ) ) ) 0 ) ( = ( - ( + 0 ( * RFN1_arg5 1 ) ) ) 0 ) ) ( and ( and ( >= lam5n0 0 ) ( >= lam5n1 0 ) ( >= lam5n2 0 ) ( >= lam5n3 0 ) ( >= lam5n4 0 ) ( >= lam5n5 0 ) ( >= lam5n6 0 ) ( >= lam5n7 0 ) ( >= lam5n8 0 ) ( >= lam5n9 0 ) ( > ( + ( * 1 lam5n0 ) ( * 1 lam5n1 ) ( * 1 lam5n2 ) ( * 2 lam5n4 ) ( * 2 lam5n5 ) ( * 2 lam5n6 ) ( * 4 lam5n7 ) ( * 3 lam5n8 ) ( * Nl11CT1 lam5n9 ) ( - 1 ( - RFN1_CT ) ) ) 0 ) ( = ( + ( * ( - 1 ) lam5n0 ) ( * ( - 1 ) lam5n4 ) ( * ( - 1 ) lam5n5 ) ( * ( - 1 ) lam5n6 ) ( * ( - 1 ) lam5n7 ) ( * ( - 1 ) lam5n8 ) ( * Nl11arg11 lam5n9 ) ( - ( - RFN1_arg1 ) ) ) 0 ) ( = ( + ( * ( - 1 ) lam5n0 ) ( * ( - 1 ) lam5n1 ) ( * ( - 1 ) lam5n4 ) ( * ( - 1 ) lam5n7 ) ( * Nl11arg21 lam5n9 ) ( - ( - RFN1_arg2 ) ) ) 0 ) ( = ( + ( * 1 lam5n4 ) ( * 1 lam5n5 ) ( * Nl11arg31 lam5n9 ) ( - ( - RFN1_arg3 ) ) ) 0 ) ( = ( + ( * 1 lam5n0 ) ( * 1 lam5n6 ) ( * Nl11arg41 lam5n9 ) ( - ( - RFN1_arg4 ) ) ) 0 ) ( = ( + ( * Nl11arg51 lam5n9 ) ( - ( - RFN1_arg5 ) ) ) 0 ) ( = ( * ( - 1 ) lam5n2 ) 0 ) ( = ( * ( - 1 ) lam5n3 ) 0 ) ) ( and ( >= lam6n0 0 ) ( >= lam6n1 0 ) ( >= lam6n2 0 ) ( >= lam6n3 0 ) ( >= lam6n4 0 ) ( >= lam6n5 0 ) ( >= lam6n6 0 ) ( >= lam6n7 0 ) ( >= lam6n8 0 ) ( >= lam6n9 0 ) ( > ( + ( * 1 lam6n0 ) ( * 1 lam6n1 ) ( * 1 lam6n2 ) ( * 2 lam6n4 ) ( * 2 lam6n5 ) ( * 2 lam6n6 ) ( * 4 lam6n7 ) ( * 3 lam6n8 ) ( * Nl11CT1 lam6n9 ) ( - 1 ( + ( - ( + ( + ( + ( + ( + RFN1_CT ( * RFN1_arg1 0 ) ) ( * RFN1_arg2 0 ) ) ( * RFN1_arg3 0 ) ) ( * RFN1_arg4 0 ) ) ( * RFN1_arg5 0 ) ) RFN1_CT ) 1 ) ) ) 0 ) ( = ( + ( * ( - 1 ) lam6n0 ) ( * ( - 1 ) lam6n4 ) ( * ( - 1 ) lam6n5 ) ( * ( - 1 ) lam6n6 ) ( * ( - 1 ) lam6n7 ) ( * ( - 1 ) lam6n8 ) ( * Nl11arg11 lam6n9 ) ( - ( - RFN1_arg1 ) ) ) 0 ) ( = ( + ( * ( - 1 ) lam6n0 ) ( * ( - 1 ) lam6n1 ) ( * ( - 1 ) lam6n4 ) ( * ( - 1 ) lam6n7 ) ( * Nl11arg21 lam6n9 ) ( - ( - RFN1_arg2 ) ) ) 0 ) ( = ( + ( * 1 lam6n4 ) ( * 1 lam6n5 ) ( * Nl11arg31 lam6n9 ) ( - ( - RFN1_arg3 ) ) ) 0 ) ( = ( + ( * 1 lam6n0 ) ( * 1 lam6n6 ) ( * Nl11arg41 lam6n9 ) ( - ( - RFN1_arg4 ) ) ) 0 ) ( = ( + ( * Nl11arg51 lam6n9 ) ( - ( - RFN1_arg5 ) ) ) 0 ) ( = ( + ( * ( - 1 ) lam6n2 ) ( - ( + 0 ( * RFN1_arg1 1 ) ) ) ) 0 ) ( = ( + ( * ( - 1 ) lam6n3 ) ( - ( + 0 ( * RFN1_arg2 1 ) ) ) ) 0 ) ( = ( - ( + 0 ( * RFN1_arg3 1 ) ) ) 0 ) ( = ( - ( + 0 ( * RFN1_arg4 1 ) ) ) 0 ) ( = ( - ( + 0 ( * RFN1_arg5 1 ) ) ) 0 ) ) ) ) ( and ( >= lam4n0 0 ) ( >= lam4n1 0 ) ( >= lam4n2 0 ) ( >= lam4n3 0 ) ( >= lam4n4 0 ) ( >= lam4n5 0 ) ( >= lam4n6 0 ) ( >= lam4n7 0 ) ( >= lam4n8 0 ) ( >= lam4n9 0 ) ( > ( + ( * 1 lam4n0 ) ( * 1 lam4n1 ) ( * 1 lam4n2 ) ( * 2 lam4n4 ) ( * 2 lam4n5 ) ( * 2 lam4n6 ) ( * 4 lam4n7 ) ( * 3 lam4n8 ) ( * Nl11CT1 lam4n9 ) ( - 1 ) ) 0 ) ( = ( + ( * ( - 1 ) lam4n0 ) ( * ( - 1 ) lam4n4 ) ( * ( - 1 ) lam4n5 ) ( * ( - 1 ) lam4n6 ) ( * ( - 1 ) lam4n7 ) ( * ( - 1 ) lam4n8 ) ( * Nl11arg11 lam4n9 ) ) 0 ) ( = ( + ( * ( - 1 ) lam4n0 ) ( * ( - 1 ) lam4n1 ) ( * ( - 1 ) lam4n4 ) ( * ( - 1 ) lam4n7 ) ( * Nl11arg21 lam4n9 ) ) 0 ) ( = ( + ( * 1 lam4n4 ) ( * 1 lam4n5 ) ( * Nl11arg31 lam4n9 ) ) 0 ) ( = ( + ( * 1 lam4n0 ) ( * 1 lam4n6 ) ( * Nl11arg41 lam4n9 ) ) 0 ) ( = ( * Nl11arg51 lam4n9 ) 0 ) ( = ( * ( - 1 ) lam4n2 ) 0 ) ( = ( * ( - 1 ) lam4n3 ) 0 ) ) ))
(check-sat)
(exit)
